NAME: tsp15_27
COMMENT: 15-tsp problem (Padberg/Rinaldi)
TYPE: TSP
DIMENSION: 15
EDGE_WEIGHT_TYPE : EUC_2D
NODE_COORD_SECTION
1 34 12
2 10 35
3 40 8
4 18 19
5 31 18
6 14 18
7 17 28
8 3 29
9 30 26
10 18 1
11 22 33
12 5 8
13 8 38
14 11 25
15 38 23
